c contains hamiltonian cycle
p col 24 36
e 1 2
e 1 4
e 1 5
e 2 3
e 2 8
e 3 4
e 3 11
e 4 14
e 5 6
e 5 16
e 6 7
e 6 17
e 7 8
e 7 18
e 8 9
e 9 10
e 9 18
e 10 11
e 10 19
e 11 12
e 12 13
e 12 19
e 13 14
e 13 20
e 14 15
e 15 16
e 15 20
e 16 17
e 17 21
e 18 22
e 19 23
e 20 24
e 21 22
e 21 24
e 22 23
e 23 24